544.27 0
0 33 19 49 1 54 12 43 29 41 36 37 63 28 71 7 13 64 6 66 9 67 39 35 65 22 58 8 73 30 32 21 31 57 74 42 52 18 50 15 56 45 72 44 14 51 20 48 27 26 75 47 68 16 62 11 55 61 10 60 17 2 4 3 25 59 23 34 38 70 24 53 40 5 69 46